p cnf 22 51
a 9 21 0
e 1 2 3 4 5 6 7 8 10 11 12 13 14 15 16 17 18 19 20 22 0
-4 2 0
-4 -3 0
-2 3 4 0
-4 -5 0
4 -5 0
-6 1 0
-6 5 0
-1 -5 6 0
7 8 -9 0
-7 -8 -9 0
7 -8 9 0
-7 8 9 0
10 9 0
10 -2 0
-9 2 -10 0
12 -10 0
12 -11 0
10 11 -12 0
-13 6 0
-13 12 0
-6 -12 13 0
-4 -8 -14 0
4 8 -14 0
-4 8 14 0
4 -8 14 0
-15 -7 0
-15 14 0
7 -14 15 0
18 16 0
18 17 0
-16 -17 -18 0
-19 15 0
-19 18 0
-15 -18 19 0
-3 7 -20 0
3 -7 -20 0
-3 -7 20 0
3 7 20 0
19 -20 -21 0
-19 20 -21 0
19 20 21 0
-19 -20 21 0
22 13 0
22 21 0
-13 -21 -22 0
22 -18 14 -10 7 1 -6 0
-4 19 -9 0
-3 -5 1 22 -15 7 12 0
17 -1 -4 -9 12 6 8 0
-1 -3 21 15 0
22 0
